80 9441087
35 46 48 24 36 58 9 10 34 16 57 69 44 26 27 65 25 71 42 31 38 13 49 17 30 6 19 45 1 12 53 40 63 5 23 55 59 18 4 15 51 52 47 8 60 54 3 43 77 62 11 78 72 80 64 22 14 21 66 74 50 20 32 70 68 75 33 61 79 2 76 28 67 29 37 7 41 73 56 39 
